8 7 2 -1 6 7 7 2 6 3 3 2 0 6 -1 
9 8 5 4 2 2 -1 3 8 6 5 2 0 5 3 8 1 9 8 -1 
8 1 1 3 0 6 7 2 0 7 -1 7 9 3 3 7 0 5 6 2 6 1 -1 
9 2 6 2 -1 7 3 3 -1 8 5 9 9 1 -1 3 9 -1 
0 3 1 3 2 2 -1 0 0 3 6 9 7 6 8 9 9 2 6 8 -1 
4 7 -1 6 0 7 4 2 5 7 2 3 3 2 -1 
9 5 -1 6 9 3 4 4 5 3 2 3 0 4 7 0 -1 
9 0 8 9 0 6 5 1 1 4 9 7 0 4 2 1 3 6 1 7 3 3 6 8 -1 
1 9 0 1 0 3 7 4 1 8 3 3 9 6 2 5 0 7 0 0 4 5 -1 
8 2 2 8 5 8 4 6 -1 7 6 7 4 9 5 7 0 9 -1 
